1531, 0, 0, 75, 0
1532, 0, 1, 43, 3
1533, 0, 2, 45, 1
1534, 0, 3, 61, 2
1535, 1, 0, 89, 3
1536, 1, 1, 61, 2
1537, 1, 2, 47, 1
1538, 1, 3, 76, 0
1539, 2, 0, 36, 0
1540, 2, 1, 56, 2
1541, 2, 2, 99, 3
1542, 2, 3, 49, 1
1543, 3, 0, 70, 0
1544, 3, 1, 66, 2
1545, 3, 2, 62, 3
1546, 3, 3, 83, 1
